%
% The MT06 instance. Optimal schedule length = 55 
% Fisher and Thompson 6x6 instance, alternate name (mt06)
%
num_machines = 6;
num_jobs = 6;
max_time = 100;


%
% The times for each job.
%
job_times = array2d(1..num_jobs, 1..num_machines, 
   [
1, 3, 6,  7,  3,  6, 
8, 5, 10, 10, 10, 4,
5, 4, 8,  9,  1,  7,
5, 5, 5,  3,  8,  9,  
9, 3, 5,  4,  3,  1, 
3, 3, 9,  10, 4,  2,

 ]);


%
% The order the jobs must be done.
%
%
job_order = array2d(1..num_jobs, 1..num_machines,
  [
   % indicating the order in which each job must be done
2, 0, 1, 3, 5, 4,
1, 2, 4, 5, 0, 3,
2, 3, 5, 0, 1, 4,
1, 0, 2, 3, 4, 5,
2, 1, 4, 5, 0, 3,
1, 3, 5, 0, 4, 2,
  ]);
